webassembly/ejemplos_dzn/4/folder4_json_34.dzn
TERM = { '.', 's(2)', 'in_1', 'in_2', 'in_3', 's(1)', 's(0)', 's(3)', 'in_0'};
null = '.';
s = 4;
n = 10;
ndeps = 2;
max_registers_sz = 3;
NR = 0;
registers = [| |];
dependencies = [|'call[function_index(0)]_0', 'i32.store8_2', |'i32.store8_2', 'i32.store16_3'|];
GET_ENUM = { GET1, GET2, GET3};
SET_ENUM = { SET1, SET2, SET3};
TEE_ENUM = { TEE1, TEE2, TEE3};
N = 4;
OP = { 'call[function_index(0)]_0', 'i32.sub_0', 'i32.store8_2', 'i32.store16_3' };
in_ops = [2, 2, 2, 2 ];
out_ops = [3, 1, 0, 0 ];
in1 = ['in_0', 's(2)', 's(3)', 'in_2' ];
in2 = ['in_1', 's(1)', 's(0)', 'in_3' ];
in3 = ['.', '.', '.', '.' ];
out1 = ['s(2)', 's(3)', '.', '.' ];
out2 = ['s(1)', '.', '.', '.' ];
out3 = ['s(0)', '.', '.', '.' ];
comm = [false, false, false, false ];
gas = [1, 1, 1, 1 ];
sz = [1, 1, 1, 1 ];
stor = [true, false, true, true ];
lb = [ 1, 1, 1, 1 ];
ub = [ 4, 4, 4, 4 ];
startstack = [ 'in_0', 'in_1', 'in_2', 'in_3', null, null, null, null, null, null ];
endstack = [ null, null, null, null, null, null, null, null, null, null ];
